db/data/253392180621846506013387137651572031589.z3.out
sat
-------------------
366.870799841
